p cnf 49 137
a 1 34 0
e 2 3 4 5 6 7 8 9 10 11 12 13 14 15 16 17 18 19 20 21 22 23 24 25 26 27 28 29 30 31 32 33 35 36 37 38 39 40 41 42 43 44 45 46 47 48 49 0
2 3 0
-2 3 0
1 -3 -4 0
-1 3 -4 0
1 3 4 0
-1 -3 4 0
-6 1 0
-6 -5 0
-1 5 6 0
10 -8 0
10 9 0
8 -9 -10 0
11 -7 0
11 10 0
7 -10 -11 0
-12 8 0
-12 2 0
-8 -2 12 0
14 13 0
14 -2 0
-13 2 -14 0
15 12 0
15 14 0
-12 -14 -15 0
-16 -11 0
-16 15 0
11 -15 16 0
-17 6 0
-17 16 0
-6 -16 17 0
18 -4 0
18 17 0
4 -17 -18 0
-19 -7 0
-19 8 0
7 -8 19 0
-12 19 -20 0
12 -19 -20 0
-12 -19 20 0
12 19 20 0
-22 8 0
-22 -21 0
-8 21 22 0
-23 20 0
-23 22 0
-20 -22 23 0
-24 -18 0
-24 -23 0
18 23 24 0
25 -7 0
25 13 0
7 -13 -25 0
26 -21 0
26 25 0
21 -25 -26 0
-27 -20 -28 0
27 20 -28 0
-27 20 28 0
27 -20 28 0
-29 -8 0
-29 -8 0
8 29 0
-30 -5 0
-30 29 0
5 -29 30 0
-31 -2 0
-31 21 0
2 -21 31 0
30 31 -32 0
-30 -31 -32 0
30 -31 32 0
-30 31 32 0
-28 -32 -33 0
28 32 -33 0
-28 32 33 0
28 -32 33 0
26 -33 -34 0
-26 33 -34 0
26 33 34 0
-26 -33 34 0
-35 29 0
-35 -13 0
-29 13 35 0
36 -35 0
36 -35 0
35 -36 0
-38 -12 0
-38 37 0
12 -37 38 0
-39 -38 0
-39 -3 0
38 3 39 0
40 -5 0
40 -21 0
5 21 -40 0
-41 -39 0
-41 -40 0
39 40 41 0
42 36 0
42 41 0
-36 -41 -42 0
-34 42 -43 0
34 -42 -43 0
-34 -42 43 0
34 42 43 0
44 -8 0
44 25 0
8 -25 -44 0
45 9 0
45 44 0
-9 -44 -45 0
-46 7 0
-46 5 0
-7 -5 46 0
-45 46 -47 0
45 -46 -47 0
-45 -46 47 0
45 46 47 0
48 43 0
48 -47 0
-43 47 -48 0
49 -24 0
49 -48 0
24 48 -49 0
10 35 -48 20 18 0
15 -18 14 -32 39 5 -43 0
-18 17 -19 38 0
-7 27 -42 29 -28 -1 -40 0
-35 -26 -14 29 0
9 -43 -45 33 -32 -28 0
41 27 -47 43 0
20 31 16 46 32 43 -21 0
-36 -29 -24 -28 5 0
44 -24 32 0
-44 11 5 16 0
7 15 -14 -4 34 24 0
49 0
